c WARNING: for repeatability, setting FPU to use double precision
d VARIABLES            66930        
d CONSTRAINTS          268711       
c ============================[ Problem Statistics ]=============================
c |                                                                             |
c |  Number of variables:         66930                                         |
c |  Number of clauses:          268711                                         |
c |  Parse time:                   0.04 s                                       |
c |                                                                             |
c ============================[ Search Statistics ]==============================
c | Conflicts |          ORIGINAL         |          LEARNT          | Progress |
c |           |    Vars  Clauses Literals |    Limit  Clauses Lit/Cl |          |
c ===============================================================================
c |       100 |   49272   223865   547217 |    82083      100     36 | 26.383 % |
c |       250 |   49272   223865   547217 |    90292      250     36 | 26.383 % |
c |       475 |   49272   223865   547217 |    99321      475     49 | 26.383 % |
c |       812 |   49269   223854   547191 |   109253      809     48 | 26.387 % |
c |      1318 |   49269   223834   547144 |   120178     1315     67 | 26.387 % |
c |      2077 |   49269   223834   547144 |   132196     2074     74 | 26.387 % |
c |      3216 |   49269   223834   547144 |   145416     3213    103 | 26.387 % |
c |      4924 |   49265   223824   547121 |   159958     4917    104 | 26.393 % |
c |      7486 |   49255   223695   546820 |   175953     7464    114 | 26.408 % |
c |     11330 |   49242   223594   546584 |   193549    11284    117 | 26.428 % |
c ===============================================================================
c restarts              : 63
c conflicts             : 16921          (6130 /sec)
c decisions             : 70407          (0.00 % random) (25508 /sec)
c propagations          : 16724946       (6059385 /sec)
c conflict literals     : 1754354        (39.54 % deleted)
d RESTARTS             63
d FAILURES             16921        
d NODES                70407        
d BACKTRACKS           70407        
d PROPAGATIONS         16724946     
d NOGOODSIZE           103.68 
d MEMORY               31.00 
d TIME                 2.76017 

s UNSATISFIABLE
